p cnf 7230 17
-4618 -6231 6346 0
-4622 -6351 -6354 0
4622 -6352 0
6231 -6346 0
-6352 6354 0
-4620 -6235 -6347 0
4620 -6348 0
6351 6352 0
6349 6350 0
6227 -6350 0
-6227 -6349 0
6347 6348 0
6235 -6348 0
-6229 6354 0
6229 -6354 0
6345 6346 0
-6345 -6346 0
